c Created with the Wolfram Language : www.wolfram.com
c 
p edge 90 201
e 4 5
e 5 10
e 1 11
e 6 15
e 8 15
e 2 16
e 1 17
e 9 18
e 14 18
e 12 22
e 19 23
e 20 23
e 14 24
e 3 25
e 3 26
e 20 26
e 5 27
e 1 28
e 9 28
e 10 30
e 25 30
e 4 31
e 12 31
e 13 32
e 26 32
e 19 33
e 24 33
e 29 33
e 12 34
e 17 34
e 23 35
e 14 36
e 3 37
e 10 37
e 28 37
e 12 38
e 16 39
e 38 39
e 16 41
e 3 43
e 19 43
e 41 43
e 5 44
e 12 44
e 25 45
e 17 46
e 20 46
e 24 46
e 35 46
e 9 47
e 33 48
e 35 48
e 4 49
e 7 49
e 8 49
e 48 49
e 18 50
e 20 50
e 27 50
e 7 51
e 1 52
e 27 52
e 4 53
e 5 53
e 15 53
e 25 53
e 43 53
e 25 54
e 31 54
e 34 54
e 53 54
e 18 55
e 11 56
e 17 56
e 29 56
e 55 56
e 11 57
e 26 57
e 41 57
e 25 58
e 27 58
e 57 58
e 15 59
e 16 59
e 30 59
e 44 59
e 47 59
e 41 60
e 48 60
e 5 61
e 13 61
e 14 61
e 42 61
e 56 61
e 15 62
e 31 62
e 4 63
e 19 63
e 15 64
e 25 64
e 42 64
e 56 64
e 52 65
e 39 66
e 40 66
e 10 67
e 16 67
e 37 67
e 46 67
e 8 68
e 23 68
e 32 68
e 46 68
e 55 68
e 59 68
e 21 69
e 30 69
e 4 71
e 16 71
e 17 71
e 25 71
e 43 71
e 17 72
e 18 72
e 27 72
e 58 72
e 2 73
e 7 73
e 10 73
e 40 73
e 68 73
e 11 74
e 15 74
e 26 74
e 40 74
e 41 74
e 1 75
e 11 75
e 55 75
e 60 75
e 3 76
e 19 76
e 27 76
e 29 76
e 61 76
e 65 76
e 2 77
e 15 77
e 46 77
e 21 78
e 23 78
e 44 78
e 69 78
e 70 78
e 76 78
e 1 79
e 2 79
e 13 79
e 16 79
e 39 79
e 46 79
e 66 80
e 71 80
e 16 81
e 18 81
e 28 81
e 39 81
e 53 81
e 62 81
e 73 81
e 76 81
e 47 82
e 52 82
e 67 82
e 73 82
e 6 83
e 49 83
e 58 83
e 78 84
e 60 85
e 59 86
e 28 87
e 39 87
e 40 87
e 56 87
e 67 87
e 1 88
e 22 88
e 11 89
e 32 89
e 40 89
e 57 89
e 69 89
e 79 89
e 7 90
e 17 90
e 22 90
e 39 90
e 40 90
e 41 90
e 50 90
